0
0
0
11
19
19
44
67
132
233
358
507
796
1115
1226
1272
1308
1344
1372
1397
1423
1441
1450
1466
1489
1505
1520
1531
1548
1564
1577
1593
1616
1636
1646
1653
1660
1671
1684
1700
1716
1716
1716
1716
1716
1716
1716
1716
1716
1716
1716
1716
1716
1716
1716
1716
1716
1716
1716
1716
1716
1716
1716
1716
1716
1716
1716
1716
1716
1716
1716
1716
1716
1716
1716
1716
1716
1716
1716
1716
1716
1716
1716
1716
1716
1716
1716
1716
1716
1716
1716
1716
1716
1716
1716
1716
1716
1716
1716
